[VALIDATOR STDOUT]
Checking plan: /home/jfan5/Safety-gen/runs/benchmark/optic/blocksworld_20260205_140901/blocksworld/optic_results/bw_ops3_n08_seed8001.plan
Plan to validate:

Plan size: 18
1:
(unstack b8 b2)
 
2:
(putdown b8)
 
3:
(unstack b2 b6)
 
4:
(stack b2 b4)
 
5:
(pickup b8)
 
6:
(stack b8 b2)
 
7:
(unstack b3 b5)
 
8:
(putdown b3)
 
9:
(unstack b6 b7)
 
10:
(stack b6 b3)
 
11:
(pickup b7)
 
12:
(stack b7 b5)
 
13:
(unstack b6 b3)
 
14:
(putdown b6)
 
15:
(pickup b3)
 
16:
(stack b3 b7)
 
17:
(pickup b6)
 
18:
(stack b6 b3)
 

Plan Validation details
-----------------------

Checking next happening (time 1)
Deleting (on b8 b2)
Deleting (clear b8)
Deleting (arm-empty)
Adding (holding b8)
Adding (clear b2)

Checking next happening (time 2)
Deleting (holding b8)
Adding (clear b8)
Adding (arm-empty)
Adding (on-table b8)

Checking next happening (time 3)
Deleting (on b2 b6)
Deleting (clear b2)
Deleting (arm-empty)
Adding (holding b2)
Adding (clear b6)

Checking next happening (time 4)
Deleting (clear b4)
Deleting (holding b2)
Adding (arm-empty)
Adding (clear b2)
Adding (on b2 b4)

Checking next happening (time 5)
Deleting (clear b8)
Deleting (on-table b8)
Deleting (arm-empty)
Adding (holding b8)

Checking next happening (time 6)
Deleting (clear b2)
Deleting (holding b8)
Adding (arm-empty)
Adding (clear b8)
Adding (on b8 b2)

Checking next happening (time 7)
Deleting (on b3 b5)
Deleting (clear b3)
Deleting (arm-empty)
Adding (holding b3)
Adding (clear b5)

Checking next happening (time 8)
Deleting (holding b3)
Adding (clear b3)
Adding (arm-empty)
Adding (on-table b3)

Checking next happening (time 9)
Deleting (on b6 b7)
Deleting (clear b6)
Deleting (arm-empty)
Adding (holding b6)
Adding (clear b7)

Checking next happening (time 10)
Deleting (clear b3)
Deleting (holding b6)
Adding (arm-empty)
Adding (clear b6)
Adding (on b6 b3)

Checking next happening (time 11)
Deleting (clear b7)
Deleting (on-table b7)
Deleting (arm-empty)
Adding (holding b7)

Checking next happening (time 12)
Deleting (clear b5)
Deleting (holding b7)
Adding (arm-empty)
Adding (clear b7)
Adding (on b7 b5)

Checking next happening (time 13)
Deleting (on b6 b3)
Deleting (clear b6)
Deleting (arm-empty)
Adding (holding b6)
Adding (clear b3)

Checking next happening (time 14)
Deleting (holding b6)
Adding (clear b6)
Adding (arm-empty)
Adding (on-table b6)

Checking next happening (time 15)
Deleting (clear b3)
Deleting (on-table b3)
Deleting (arm-empty)
Adding (holding b3)

Checking next happening (time 16)
Deleting (clear b7)
Deleting (holding b3)
Adding (arm-empty)
Adding (clear b3)
Adding (on b3 b7)

Checking next happening (time 17)
Deleting (clear b6)
Deleting (on-table b6)
Deleting (arm-empty)
Adding (holding b6)

Checking next happening (time 18)
Deleting (clear b3)
Deleting (holding b6)
Adding (arm-empty)
Adding (clear b6)
Adding (on b6 b3)
Plan executed successfully - checking goal
Plan valid
Final value: 18 

Successful plans:
Value: 18
 /home/jfan5/Safety-gen/runs/benchmark/optic/blocksworld_20260205_140901/blocksworld/optic_results/bw_ops3_n08_seed8001.plan 18
